NAME : tsp_205_sol.txt
COMMENT : OR-Tools Guided Local Search
TYPE : TOUR
DIMENSION : 50
COST : 5852
STATUS : ROUTING_SUCCESS
GAP : 0.00% (Reference Solution)
TOUR_SECTION
1
23
45
37
21
2
28
49
4
47
35
16
43
9
29
26
7
25
10
42
19
44
40
30
27
20
32
31
14
34
46
48
11
38
39
36
13
6
3
18
12
5
24
17
8
15
41
50
33
22
-1
